2
100 2
81
20 1 6
21 1 8
22 1 9
23 1 7
24 1 6
25 1 7
26 1 6
27 1 8
28 1 5
29 1 7
30 1 5
31 1 4
32 1 2
33 1 8
34 1 5
35 1 6
36 1 5
37 1 3
38 1 9
39 1 9
40 1 3
41 1 2
42 1 8
43 1 9
44 1 6
45 1 7
46 1 6
47 1 6
48 1 5
49 1 6
50 1 6
51 1 6
52 1 8
53 1 6
54 1 3
55 1 3
56 1 12
57 1 10
58 1 8
59 1 4
60 1 9
61 1 7
62 1 9
63 1 6
64 1 5
65 1 8
66 1 4
67 1 3
68 1 8
69 1 8
70 1 4
71 1 7
72 1 4
73 1 6
74 1 6
75 1 2
76 1 3
77 1 9
78 1 9
79 1 2
80 1 3
81 1 7
82 1 6
83 1 10
84 1 9
85 1 7
86 1 7
87 1 3
88 1 10
89 1 8
90 1 4
91 1 6
92 1 3
93 1 3
94 1 3
95 1 8
96 1 6
97 1 7
98 1 6
99 1 6
100 1 10
